ID_groupA
318
2512
318
886
318
318
318
318
318
2979
318
318
318
318
2512
318
886
318
318
85
85
85
318
318
85
85
85
2512
886
318
2512
2512
2512
2512
2512
2512
2512
2512
2512
886
318
318
2512
318
318
318
318
318
85
318
886
886
886
886
886
886
886
886
886
318
318
318
318
318
2979
886
318
318
318
2512
318
318
318
318
318
85
318
85
85
85
85
85
85
85
318
318
318
2512
85
318
2979
318
318
85
318
886
318
318
318
318
318
318
85
318
85
